4
4
20
1 1.3 1.55 1.75 2.1
33 33 30 9 12 14 18 7 31 26 6 32 12 12 20 24 37 25 17 36 46 48 44 23 31 9 34 26 40 25 20 10 29 39 42 34 42 37 48 49 49 21 23 11 19 38 8 14 13 26 46 27 36 16 23 44 41 15 48 36 12 31 34 18 30 44 25 19 33 30 37 15 6 8 5 20 42 36 30 35 